(declare-const BAV1 Bool)
(declare-const BAV2 Bool)
(declare-const GEN3 Int)
(declare-const GEN2 Int)
(declare-const GEN1 Int)
(set-option :smt.arith.solver 6)
(set-option :rewriter.push_to_real false)
(declare-fun a () Int)
(declare-fun b () Int)
(declare-fun c () Int)
(assert (forall ((d Int)) (= (/ GEN1 (- GEN2 d (ite (= d a) b c))) GEN3)))
(assert (= BAV1 (forall ((d Int)) (= (/ GEN1 (- GEN2 d (ite (= d a) b c))) GEN3))))
(assert (= BAV2 (forall ((d Int)) (= d a))))
(check-sat)
(get-model)